; benchmark generated from python API
(set-info :status unknown)
(declare-fun x_epoch () Int)
(declare-fun y_epoch () Int)
(declare-fun x_plus_epoch () Int)
(declare-fun x_plus_month () Int)
(declare-fun x_plus_year () Int)
(declare-fun x_plus_day () Int)
(assert
 (>= x_epoch (- 36584)))
(assert
 (<= x_epoch 36829))
(assert
 (>= y_epoch (- 36584)))
(assert
 (<= y_epoch 36829))
(assert
 (= x_epoch 7990))
(assert
 (>= x_plus_epoch (- 36584)))
(assert
 (<= x_plus_epoch 36829))
(assert
 (let (($x126 (= x_plus_month 11)))
 (let (($x647 (= x_plus_month 9)))
 (let (($x601 (= x_plus_month 6)))
 (let (($x68 (= x_plus_month 4)))
 (let ((?x57 (ite (or $x68 $x601 $x647 $x126) 30 31)))
 (let (($x770 (= (mod x_plus_year 400) 0)))
 (let (($x1963 (= (mod x_plus_year 4) 0)))
 (let (($x292 (or (and $x1963 (and (distinct (mod x_plus_year 100) 0) true)) $x770)))
 (let (($x1920 (= x_plus_month 2)))
 (let (($x312 (>= x_plus_day 1)))
 (let (($x645 (<= x_plus_month 12)))
 (let (($x262 (>= x_plus_month 1)))
 (let (($x259 (<= x_plus_year 2100)))
 (let (($x705 (>= x_plus_year 1900)))
 (and $x705 $x259 $x262 $x645 $x312 (<= x_plus_day (ite $x1920 (ite $x292 29 28) ?x57))))))))))))))))))
(assert
 (let (($x770 (= (mod x_plus_year 400) 0)))
 (let (($x1963 (= (mod x_plus_year 4) 0)))
 (let (($x292 (or (and $x1963 (and (distinct (mod x_plus_year 100) 0) true)) $x770)))
 (let (($x142 (= 2 x_plus_month)))
 (let ((?x746 (ite $x142 (ite $x292 31 31) (ite (= 1 x_plus_month) (ite $x292 0 0) 0))))
 (let (($x151 (= 3 x_plus_month)))
 (let (($x15 (= 4 x_plus_month)))
 (let ((?x512 (ite $x15 (ite $x292 91 90) (ite $x151 (ite $x292 60 59) ?x746))))
 (let (($x324 (= 5 x_plus_month)))
 (let (($x595 (= 6 x_plus_month)))
 (let ((?x376 (ite $x595 (ite $x292 152 151) (ite $x324 (ite $x292 121 120) ?x512))))
 (let (($x431 (= 7 x_plus_month)))
 (let (($x136 (= 8 x_plus_month)))
 (let ((?x167 (ite $x136 (ite $x292 213 212) (ite $x431 (ite $x292 182 181) ?x376))))
 (let (($x318 (= 9 x_plus_month)))
 (let (($x41 (= 10 x_plus_month)))
 (let ((?x639 (ite $x41 (ite $x292 274 273) (ite $x318 (ite $x292 244 243) ?x167))))
 (let (($x724 (= 11 x_plus_month)))
 (let (($x169 (= 12 x_plus_month)))
 (let ((?x278 (ite $x169 (ite $x292 335 334) (ite $x724 (ite $x292 305 304) ?x639))))
 (let ((?x553 (+ (* 365 (- x_plus_year 1)) (div (- x_plus_year 1) 4))))
 (let ((?x411 (+ (- ?x553 (div (- x_plus_year 1) 100)) (div (- x_plus_year 1) 400))))
 (= x_plus_epoch (- (+ (+ ?x411 ?x278) (- x_plus_day 1)) 730179)))))))))))))))))))))))))
(assert
 (let ((?x641 (+ x_epoch 730179)))
 (let ((?x3127 (mod ?x641 146097)))
 (let ((?x3123 (div ?x3127 36524)))
 (let ((?x479 (ite (<= 4 ?x3123) 3 ?x3123)))
 (let ((?x652 (- ?x3127 (* ?x479 36524))))
 (let ((?x494 (mod ?x652 1461)))
 (let ((?x16 (div ?x494 365)))
 (let ((?x430 (ite (<= 4 ?x16) 3 ?x16)))
 (let ((?x1041 (+ (+ (* (div ?x641 146097) 400) (* ?x479 100)) (* (div ?x652 1461) 4))))
 (let ((?x457 (+ (+ ?x1041 ?x430) 1)))
 (let (($x2625 (or (and (= (mod ?x457 4) 0) (and (distinct (mod ?x457 100) 0) true)) (= (mod ?x457 400) 0))))
 (let ((?x2550 (- ?x494 (* ?x430 365))))
 (let ((?x2676 (ite $x2625 31 31)))
 (let (($x492 (>= ?x2550 ?x2676)))
 (let ((?x3234 (ite $x492 (+ (- ?x2550 ?x2676) 1) (+ (- ?x2550 (ite $x2625 0 0)) 1))))
 (let ((?x561 (ite $x2625 60 59)))
 (let (($x2522 (>= ?x2550 ?x561)))
 (let ((?x55 (ite $x2625 91 90)))
 (let (($x1017 (>= ?x2550 ?x55)))
 (let ((?x599 (ite $x1017 (+ (- ?x2550 ?x55) 1) (ite $x2522 (+ (- ?x2550 ?x561) 1) ?x3234))))
 (let ((?x222 (ite $x2625 121 120)))
 (let (($x28 (>= ?x2550 ?x222)))
 (let ((?x3273 (ite $x2625 152 151)))
 (let (($x1943 (>= ?x2550 ?x3273)))
 (let ((?x1910 (ite $x1943 (+ (- ?x2550 ?x3273) 1) (ite $x28 (+ (- ?x2550 ?x222) 1) ?x599))))
 (let ((?x3294 (ite $x2625 182 181)))
 (let (($x1125 (>= ?x2550 ?x3294)))
 (let ((?x2731 (ite $x2625 213 212)))
 (let (($x2525 (>= ?x2550 ?x2731)))
 (let ((?x888 (ite $x2525 (+ (- ?x2550 ?x2731) 1) (ite $x1125 (+ (- ?x2550 ?x3294) 1) ?x1910))))
 (let ((?x235 (ite $x2625 244 243)))
 (let (($x1471 (>= ?x2550 ?x235)))
 (let ((?x1414 (ite $x2625 274 273)))
 (let (($x2958 (>= ?x2550 ?x1414)))
 (let ((?x679 (ite $x2958 (+ (- ?x2550 ?x1414) 1) (ite $x1471 (+ (- ?x2550 ?x235) 1) ?x888))))
 (let ((?x1446 (ite $x2625 305 304)))
 (let (($x1110 (>= ?x2550 ?x1446)))
 (let ((?x2706 (ite $x2625 335 334)))
 (let (($x44 (>= ?x2550 ?x2706)))
 (let ((?x537 (ite $x44 (+ (- ?x2550 ?x2706) 1) (ite $x1110 (+ (- ?x2550 ?x1446) 1) ?x679))))
 (let ((?x299 (+ (* 0 12) 13)))
 (let ((?x371 (ite $x28 5 (ite $x1017 4 (ite $x2522 3 (ite $x492 2 1))))))
 (let ((?x1000 (ite $x1471 9 (ite $x2525 8 (ite $x1125 7 (ite $x1943 6 ?x371))))))
 (let ((?x410 (ite $x44 12 (ite $x1110 11 (ite $x2958 10 ?x1000)))))
 (let ((?x535 (+ ?x410 ?x299)))
 (let ((?x133 (- ?x535 1)))
 (let ((?x547 (+ (mod ?x133 12) 1)))
 (let ((?x560 (ite (or (= ?x547 4) (= ?x547 6) (= ?x547 9) (= ?x547 11)) 30 31)))
 (let (($x752 (and (= (mod (+ ?x457 (+ 0 (div ?x133 12))) 4) 0) (and (distinct (mod (+ ?x457 (+ 0 (div ?x133 12))) 100) 0) true))))
 (let (($x707 (or $x752 (= (mod (+ ?x457 (+ 0 (div ?x133 12))) 400) 0))))
 (let ((?x445 (ite (= ?x547 2) (ite $x707 29 28) ?x560)))
 (let (($x717 (> 1 ?x537)))
 (let ((?x780 (ite $x717 1 (ite (> ?x537 ?x445) ?x445 ?x537))))
 (let ((?x336 (ite (> 1 ?x780) 1 (ite (> ?x780 ?x445) ?x445 ?x780))))
 (let ((?x274 (ite (= 2 ?x547) (ite $x707 31 31) (ite (= 1 ?x547) (ite $x707 0 0) 0))))
 (let ((?x225 (ite (= 4 ?x547) (ite $x707 91 90) (ite (= 3 ?x547) (ite $x707 60 59) ?x274))))
 (let ((?x149 (ite (= 6 ?x547) (ite $x707 152 151) (ite (= 5 ?x547) (ite $x707 121 120) ?x225))))
 (let ((?x562 (ite (= 8 ?x547) (ite $x707 213 212) (ite (= 7 ?x547) (ite $x707 182 181) ?x149))))
 (let ((?x1637 (ite (= 10 ?x547) (ite $x707 274 273) (ite (= 9 ?x547) (ite $x707 244 243) ?x562))))
 (let ((?x708 (ite (= 12 ?x547) (ite $x707 335 334) (ite (= 11 ?x547) (ite $x707 305 304) ?x1637))))
 (let ((?x162 (+ (* 365 (- (+ ?x457 (+ 0 (div ?x133 12))) 1)) (div (- (+ ?x457 (+ 0 (div ?x133 12))) 1) 4))))
 (let ((?x363 (+ (- ?x162 (div (- (+ ?x457 (+ 0 (div ?x133 12))) 1) 100)) (div (- (+ ?x457 (+ 0 (div ?x133 12))) 1) 400))))
 (let ((?x261 (+ (+ (- (+ (+ ?x363 ?x708) (- ?x336 1)) 730179) 40) 730179)))
 (let ((?x1655 (mod ?x261 146097)))
 (let ((?x365 (div ?x1655 36524)))
 (let ((?x719 (ite (<= 4 ?x365) 3 ?x365)))
 (let ((?x691 (- ?x1655 (* ?x719 36524))))
 (let ((?x637 (mod ?x691 1461)))
 (let ((?x493 (div ?x637 365)))
 (let ((?x260 (ite (<= 4 ?x493) 3 ?x493)))
 (let ((?x110 (+ (+ (* (div ?x261 146097) 400) (* ?x719 100)) (* (div ?x691 1461) 4))))
 (let ((?x422 (+ (+ ?x110 ?x260) 1)))
 (let ((?x327 (+ 0 (div ?x133 12))))
 (let ((?x737 (+ ?x457 ?x327)))
 (let (($x137 (= 40 0)))
 (let ((?x1159 (ite $x137 ?x737 ?x422)))
 (= x_plus_year ?x1159))))))))))))))))))))))))))))))))))))))))))))))))))))))))))))))))))))))))))))))
(assert
 (let ((?x641 (+ x_epoch 730179)))
 (let ((?x3127 (mod ?x641 146097)))
 (let ((?x3123 (div ?x3127 36524)))
 (let ((?x479 (ite (<= 4 ?x3123) 3 ?x3123)))
 (let ((?x652 (- ?x3127 (* ?x479 36524))))
 (let ((?x494 (mod ?x652 1461)))
 (let ((?x16 (div ?x494 365)))
 (let ((?x430 (ite (<= 4 ?x16) 3 ?x16)))
 (let ((?x1041 (+ (+ (* (div ?x641 146097) 400) (* ?x479 100)) (* (div ?x652 1461) 4))))
 (let ((?x457 (+ (+ ?x1041 ?x430) 1)))
 (let (($x2625 (or (and (= (mod ?x457 4) 0) (and (distinct (mod ?x457 100) 0) true)) (= (mod ?x457 400) 0))))
 (let ((?x2550 (- ?x494 (* ?x430 365))))
 (let ((?x2676 (ite $x2625 31 31)))
 (let (($x492 (>= ?x2550 ?x2676)))
 (let ((?x3234 (ite $x492 (+ (- ?x2550 ?x2676) 1) (+ (- ?x2550 (ite $x2625 0 0)) 1))))
 (let ((?x561 (ite $x2625 60 59)))
 (let (($x2522 (>= ?x2550 ?x561)))
 (let ((?x55 (ite $x2625 91 90)))
 (let (($x1017 (>= ?x2550 ?x55)))
 (let ((?x599 (ite $x1017 (+ (- ?x2550 ?x55) 1) (ite $x2522 (+ (- ?x2550 ?x561) 1) ?x3234))))
 (let ((?x222 (ite $x2625 121 120)))
 (let (($x28 (>= ?x2550 ?x222)))
 (let ((?x3273 (ite $x2625 152 151)))
 (let (($x1943 (>= ?x2550 ?x3273)))
 (let ((?x1910 (ite $x1943 (+ (- ?x2550 ?x3273) 1) (ite $x28 (+ (- ?x2550 ?x222) 1) ?x599))))
 (let ((?x3294 (ite $x2625 182 181)))
 (let (($x1125 (>= ?x2550 ?x3294)))
 (let ((?x2731 (ite $x2625 213 212)))
 (let (($x2525 (>= ?x2550 ?x2731)))
 (let ((?x888 (ite $x2525 (+ (- ?x2550 ?x2731) 1) (ite $x1125 (+ (- ?x2550 ?x3294) 1) ?x1910))))
 (let ((?x235 (ite $x2625 244 243)))
 (let (($x1471 (>= ?x2550 ?x235)))
 (let ((?x1414 (ite $x2625 274 273)))
 (let (($x2958 (>= ?x2550 ?x1414)))
 (let ((?x679 (ite $x2958 (+ (- ?x2550 ?x1414) 1) (ite $x1471 (+ (- ?x2550 ?x235) 1) ?x888))))
 (let ((?x1446 (ite $x2625 305 304)))
 (let (($x1110 (>= ?x2550 ?x1446)))
 (let ((?x2706 (ite $x2625 335 334)))
 (let (($x44 (>= ?x2550 ?x2706)))
 (let ((?x537 (ite $x44 (+ (- ?x2550 ?x2706) 1) (ite $x1110 (+ (- ?x2550 ?x1446) 1) ?x679))))
 (let ((?x299 (+ (* 0 12) 13)))
 (let ((?x371 (ite $x28 5 (ite $x1017 4 (ite $x2522 3 (ite $x492 2 1))))))
 (let ((?x1000 (ite $x1471 9 (ite $x2525 8 (ite $x1125 7 (ite $x1943 6 ?x371))))))
 (let ((?x410 (ite $x44 12 (ite $x1110 11 (ite $x2958 10 ?x1000)))))
 (let ((?x535 (+ ?x410 ?x299)))
 (let ((?x133 (- ?x535 1)))
 (let ((?x547 (+ (mod ?x133 12) 1)))
 (let ((?x560 (ite (or (= ?x547 4) (= ?x547 6) (= ?x547 9) (= ?x547 11)) 30 31)))
 (let (($x752 (and (= (mod (+ ?x457 (+ 0 (div ?x133 12))) 4) 0) (and (distinct (mod (+ ?x457 (+ 0 (div ?x133 12))) 100) 0) true))))
 (let (($x707 (or $x752 (= (mod (+ ?x457 (+ 0 (div ?x133 12))) 400) 0))))
 (let ((?x445 (ite (= ?x547 2) (ite $x707 29 28) ?x560)))
 (let (($x717 (> 1 ?x537)))
 (let ((?x780 (ite $x717 1 (ite (> ?x537 ?x445) ?x445 ?x537))))
 (let ((?x336 (ite (> 1 ?x780) 1 (ite (> ?x780 ?x445) ?x445 ?x780))))
 (let ((?x274 (ite (= 2 ?x547) (ite $x707 31 31) (ite (= 1 ?x547) (ite $x707 0 0) 0))))
 (let ((?x225 (ite (= 4 ?x547) (ite $x707 91 90) (ite (= 3 ?x547) (ite $x707 60 59) ?x274))))
 (let ((?x149 (ite (= 6 ?x547) (ite $x707 152 151) (ite (= 5 ?x547) (ite $x707 121 120) ?x225))))
 (let ((?x562 (ite (= 8 ?x547) (ite $x707 213 212) (ite (= 7 ?x547) (ite $x707 182 181) ?x149))))
 (let ((?x1637 (ite (= 10 ?x547) (ite $x707 274 273) (ite (= 9 ?x547) (ite $x707 244 243) ?x562))))
 (let ((?x708 (ite (= 12 ?x547) (ite $x707 335 334) (ite (= 11 ?x547) (ite $x707 305 304) ?x1637))))
 (let ((?x162 (+ (* 365 (- (+ ?x457 (+ 0 (div ?x133 12))) 1)) (div (- (+ ?x457 (+ 0 (div ?x133 12))) 1) 4))))
 (let ((?x363 (+ (- ?x162 (div (- (+ ?x457 (+ 0 (div ?x133 12))) 1) 100)) (div (- (+ ?x457 (+ 0 (div ?x133 12))) 1) 400))))
 (let ((?x261 (+ (+ (- (+ (+ ?x363 ?x708) (- ?x336 1)) 730179) 40) 730179)))
 (let ((?x1655 (mod ?x261 146097)))
 (let ((?x365 (div ?x1655 36524)))
 (let ((?x719 (ite (<= 4 ?x365) 3 ?x365)))
 (let ((?x691 (- ?x1655 (* ?x719 36524))))
 (let ((?x637 (mod ?x691 1461)))
 (let ((?x493 (div ?x637 365)))
 (let ((?x260 (ite (<= 4 ?x493) 3 ?x493)))
 (let ((?x110 (+ (+ (* (div ?x261 146097) 400) (* ?x719 100)) (* (div ?x691 1461) 4))))
 (let ((?x422 (+ (+ ?x110 ?x260) 1)))
 (let (($x1494 (or (and (= (mod ?x422 4) 0) (and (distinct (mod ?x422 100) 0) true)) (= (mod ?x422 400) 0))))
 (let ((?x2111 (ite $x1494 31 31)))
 (let ((?x323 (- ?x637 (* ?x260 365))))
 (let (($x2102 (>= ?x323 ?x2111)))
 (let ((?x1817 (ite $x1494 60 59)))
 (let (($x886 (>= ?x323 ?x1817)))
 (let ((?x477 (ite $x1494 91 90)))
 (let (($x2940 (>= ?x323 ?x477)))
 (let ((?x1468 (ite $x1494 121 120)))
 (let (($x152 (>= ?x323 ?x1468)))
 (let ((?x3082 (ite $x152 5 (ite $x2940 4 (ite $x886 3 (ite $x2102 2 1))))))
 (let ((?x3386 (ite $x1494 152 151)))
 (let (($x1804 (>= ?x323 ?x3386)))
 (let ((?x1871 (ite $x1494 182 181)))
 (let (($x3254 (>= ?x323 ?x1871)))
 (let ((?x3387 (ite $x1494 213 212)))
 (let (($x773 (>= ?x323 ?x3387)))
 (let ((?x3388 (ite $x1494 244 243)))
 (let (($x1671 (>= ?x323 ?x3388)))
 (let ((?x2734 (ite $x1671 9 (ite $x773 8 (ite $x3254 7 (ite $x1804 6 ?x3082))))))
 (let ((?x3389 (ite $x1494 274 273)))
 (let (($x3060 (>= ?x323 ?x3389)))
 (let ((?x3390 (ite $x1494 305 304)))
 (let (($x2053 (>= ?x323 ?x3390)))
 (let ((?x2123 (ite $x1494 335 334)))
 (let (($x832 (>= ?x323 ?x2123)))
 (let ((?x2164 (ite $x832 12 (ite $x2053 11 (ite $x3060 10 ?x2734)))))
 (let (($x137 (= 40 0)))
 (let ((?x2571 (ite $x137 ?x547 ?x2164)))
 (= x_plus_month ?x2571)))))))))))))))))))))))))))))))))))))))))))))))))))))))))))))))))))))))))))))))))))))))))))))))))))))))
(assert
 (let ((?x641 (+ x_epoch 730179)))
 (let ((?x3127 (mod ?x641 146097)))
 (let ((?x3123 (div ?x3127 36524)))
 (let ((?x479 (ite (<= 4 ?x3123) 3 ?x3123)))
 (let ((?x652 (- ?x3127 (* ?x479 36524))))
 (let ((?x494 (mod ?x652 1461)))
 (let ((?x16 (div ?x494 365)))
 (let ((?x430 (ite (<= 4 ?x16) 3 ?x16)))
 (let ((?x1041 (+ (+ (* (div ?x641 146097) 400) (* ?x479 100)) (* (div ?x652 1461) 4))))
 (let ((?x457 (+ (+ ?x1041 ?x430) 1)))
 (let (($x2625 (or (and (= (mod ?x457 4) 0) (and (distinct (mod ?x457 100) 0) true)) (= (mod ?x457 400) 0))))
 (let ((?x2550 (- ?x494 (* ?x430 365))))
 (let ((?x2676 (ite $x2625 31 31)))
 (let (($x492 (>= ?x2550 ?x2676)))
 (let ((?x3234 (ite $x492 (+ (- ?x2550 ?x2676) 1) (+ (- ?x2550 (ite $x2625 0 0)) 1))))
 (let ((?x561 (ite $x2625 60 59)))
 (let (($x2522 (>= ?x2550 ?x561)))
 (let ((?x55 (ite $x2625 91 90)))
 (let (($x1017 (>= ?x2550 ?x55)))
 (let ((?x599 (ite $x1017 (+ (- ?x2550 ?x55) 1) (ite $x2522 (+ (- ?x2550 ?x561) 1) ?x3234))))
 (let ((?x222 (ite $x2625 121 120)))
 (let (($x28 (>= ?x2550 ?x222)))
 (let ((?x3273 (ite $x2625 152 151)))
 (let (($x1943 (>= ?x2550 ?x3273)))
 (let ((?x1910 (ite $x1943 (+ (- ?x2550 ?x3273) 1) (ite $x28 (+ (- ?x2550 ?x222) 1) ?x599))))
 (let ((?x3294 (ite $x2625 182 181)))
 (let (($x1125 (>= ?x2550 ?x3294)))
 (let ((?x2731 (ite $x2625 213 212)))
 (let (($x2525 (>= ?x2550 ?x2731)))
 (let ((?x888 (ite $x2525 (+ (- ?x2550 ?x2731) 1) (ite $x1125 (+ (- ?x2550 ?x3294) 1) ?x1910))))
 (let ((?x235 (ite $x2625 244 243)))
 (let (($x1471 (>= ?x2550 ?x235)))
 (let ((?x1414 (ite $x2625 274 273)))
 (let (($x2958 (>= ?x2550 ?x1414)))
 (let ((?x679 (ite $x2958 (+ (- ?x2550 ?x1414) 1) (ite $x1471 (+ (- ?x2550 ?x235) 1) ?x888))))
 (let ((?x1446 (ite $x2625 305 304)))
 (let (($x1110 (>= ?x2550 ?x1446)))
 (let ((?x2706 (ite $x2625 335 334)))
 (let (($x44 (>= ?x2550 ?x2706)))
 (let ((?x537 (ite $x44 (+ (- ?x2550 ?x2706) 1) (ite $x1110 (+ (- ?x2550 ?x1446) 1) ?x679))))
 (let ((?x299 (+ (* 0 12) 13)))
 (let ((?x371 (ite $x28 5 (ite $x1017 4 (ite $x2522 3 (ite $x492 2 1))))))
 (let ((?x1000 (ite $x1471 9 (ite $x2525 8 (ite $x1125 7 (ite $x1943 6 ?x371))))))
 (let ((?x410 (ite $x44 12 (ite $x1110 11 (ite $x2958 10 ?x1000)))))
 (let ((?x535 (+ ?x410 ?x299)))
 (let ((?x133 (- ?x535 1)))
 (let ((?x547 (+ (mod ?x133 12) 1)))
 (let ((?x560 (ite (or (= ?x547 4) (= ?x547 6) (= ?x547 9) (= ?x547 11)) 30 31)))
 (let (($x752 (and (= (mod (+ ?x457 (+ 0 (div ?x133 12))) 4) 0) (and (distinct (mod (+ ?x457 (+ 0 (div ?x133 12))) 100) 0) true))))
 (let (($x707 (or $x752 (= (mod (+ ?x457 (+ 0 (div ?x133 12))) 400) 0))))
 (let ((?x445 (ite (= ?x547 2) (ite $x707 29 28) ?x560)))
 (let (($x717 (> 1 ?x537)))
 (let ((?x780 (ite $x717 1 (ite (> ?x537 ?x445) ?x445 ?x537))))
 (let ((?x336 (ite (> 1 ?x780) 1 (ite (> ?x780 ?x445) ?x445 ?x780))))
 (let ((?x274 (ite (= 2 ?x547) (ite $x707 31 31) (ite (= 1 ?x547) (ite $x707 0 0) 0))))
 (let ((?x225 (ite (= 4 ?x547) (ite $x707 91 90) (ite (= 3 ?x547) (ite $x707 60 59) ?x274))))
 (let ((?x149 (ite (= 6 ?x547) (ite $x707 152 151) (ite (= 5 ?x547) (ite $x707 121 120) ?x225))))
 (let ((?x562 (ite (= 8 ?x547) (ite $x707 213 212) (ite (= 7 ?x547) (ite $x707 182 181) ?x149))))
 (let ((?x1637 (ite (= 10 ?x547) (ite $x707 274 273) (ite (= 9 ?x547) (ite $x707 244 243) ?x562))))
 (let ((?x708 (ite (= 12 ?x547) (ite $x707 335 334) (ite (= 11 ?x547) (ite $x707 305 304) ?x1637))))
 (let ((?x162 (+ (* 365 (- (+ ?x457 (+ 0 (div ?x133 12))) 1)) (div (- (+ ?x457 (+ 0 (div ?x133 12))) 1) 4))))
 (let ((?x363 (+ (- ?x162 (div (- (+ ?x457 (+ 0 (div ?x133 12))) 1) 100)) (div (- (+ ?x457 (+ 0 (div ?x133 12))) 1) 400))))
 (let ((?x261 (+ (+ (- (+ (+ ?x363 ?x708) (- ?x336 1)) 730179) 40) 730179)))
 (let ((?x1655 (mod ?x261 146097)))
 (let ((?x365 (div ?x1655 36524)))
 (let ((?x719 (ite (<= 4 ?x365) 3 ?x365)))
 (let ((?x691 (- ?x1655 (* ?x719 36524))))
 (let ((?x637 (mod ?x691 1461)))
 (let ((?x493 (div ?x637 365)))
 (let ((?x260 (ite (<= 4 ?x493) 3 ?x493)))
 (let ((?x110 (+ (+ (* (div ?x261 146097) 400) (* ?x719 100)) (* (div ?x691 1461) 4))))
 (let ((?x422 (+ (+ ?x110 ?x260) 1)))
 (let (($x1494 (or (and (= (mod ?x422 4) 0) (and (distinct (mod ?x422 100) 0) true)) (= (mod ?x422 400) 0))))
 (let ((?x323 (- ?x637 (* ?x260 365))))
 (let ((?x2111 (ite $x1494 31 31)))
 (let (($x2102 (>= ?x323 ?x2111)))
 (let ((?x2295 (ite $x2102 (+ (- ?x323 ?x2111) 1) (+ (- ?x323 (ite $x1494 0 0)) 1))))
 (let ((?x1817 (ite $x1494 60 59)))
 (let (($x886 (>= ?x323 ?x1817)))
 (let ((?x477 (ite $x1494 91 90)))
 (let (($x2940 (>= ?x323 ?x477)))
 (let ((?x1374 (ite $x2940 (+ (- ?x323 ?x477) 1) (ite $x886 (+ (- ?x323 ?x1817) 1) ?x2295))))
 (let ((?x1468 (ite $x1494 121 120)))
 (let (($x152 (>= ?x323 ?x1468)))
 (let ((?x3386 (ite $x1494 152 151)))
 (let (($x1804 (>= ?x323 ?x3386)))
 (let ((?x2585 (ite $x1804 (+ (- ?x323 ?x3386) 1) (ite $x152 (+ (- ?x323 ?x1468) 1) ?x1374))))
 (let ((?x1871 (ite $x1494 182 181)))
 (let (($x3254 (>= ?x323 ?x1871)))
 (let ((?x3387 (ite $x1494 213 212)))
 (let (($x773 (>= ?x323 ?x3387)))
 (let ((?x1812 (ite $x773 (+ (- ?x323 ?x3387) 1) (ite $x3254 (+ (- ?x323 ?x1871) 1) ?x2585))))
 (let ((?x3388 (ite $x1494 244 243)))
 (let (($x1671 (>= ?x323 ?x3388)))
 (let ((?x3389 (ite $x1494 274 273)))
 (let (($x3060 (>= ?x323 ?x3389)))
 (let ((?x2742 (ite $x3060 (+ (- ?x323 ?x3389) 1) (ite $x1671 (+ (- ?x323 ?x3388) 1) ?x1812))))
 (let ((?x3390 (ite $x1494 305 304)))
 (let (($x2053 (>= ?x323 ?x3390)))
 (let ((?x2123 (ite $x1494 335 334)))
 (let (($x832 (>= ?x323 ?x2123)))
 (let ((?x375 (ite $x832 (+ (- ?x323 ?x2123) 1) (ite $x2053 (+ (- ?x323 ?x3390) 1) ?x2742))))
 (let (($x137 (= 40 0)))
 (let ((?x3022 (ite $x137 ?x336 ?x375)))
 (= x_plus_day ?x3022))))))))))))))))))))))))))))))))))))))))))))))))))))))))))))))))))))))))))))))))))))))))))))))))))))))))))
(assert
 (= y_epoch x_plus_epoch))
(assert
 (not (= y_epoch 8395)))
(check-sat)
